r_bart-archiver_20140109_0110_subgraph_train+metro+tram_gr_bz2_lp_lp_paths_tw3.cnf
p cnf 447 1029
c 48 select(1,10)
c 49 nots(1,10)
c 50 select(1,3)
c 51 nots(1,3)
c 52 select(1,14)
c 53 nots(1,14)
c 54 reach(14)
c 55 reach(3)
c 56 reach(10)
c 57 select(10,1)
c 58 nots(10,1)
c 59 select(3,1)
c 60 nots(3,1)
c 61 select(14,1)
c 62 nots(14,1)
c 63 select(14,9)
c 64 nots(14,9)
c 65 select(10,31)
c 66 nots(10,31)
c 67 select(3,21)
c 68 nots(3,21)
c 69 reach(21)
c 70 reach(31)
c 71 reach(9)
c 72 select(31,10)
c 73 nots(31,10)
c 74 select(21,3)
c 75 nots(21,3)
c 76 select(21,17)
c 77 nots(21,17)
c 78 select(9,27)
c 79 nots(9,27)
c 80 select(9,14)
c 81 nots(9,14)
c 82 select(31,37)
c 83 nots(31,37)
c 84 reach(37)
c 85 reach(27)
c 86 reach(17)
c 87 select(27,9)
c 88 nots(27,9)
c 89 select(37,15)
c 90 nots(37,15)
c 91 select(37,31)
c 92 nots(37,31)
c 93 select(17,41)
c 94 nots(17,41)
c 95 select(17,21)
c 96 nots(17,21)
c 97 reach(41)
c 98 reach(15)
c 99 select(41,11)
c 100 nots(41,11)
c 101 select(41,17)
c 102 nots(41,17)
c 103 select(41,18)
c 104 nots(41,18)
c 105 select(15,37)
c 106 nots(15,37)
c 107 reach(18)
c 108 reach(11)
c 109 select(11,8)
c 110 nots(11,8)
c 111 select(18,11)
c 112 nots(18,11)
c 113 select(18,16)
c 114 nots(18,16)
c 115 select(11,41)
c 116 nots(11,41)
c 117 select(11,18)
c 118 nots(11,18)
c 119 select(18,41)
c 120 nots(18,41)
c 121 reach(16)
c 122 reach(8)
c 123 select(8,11)
c 124 nots(8,11)
c 125 select(8,13)
c 126 nots(8,13)
c 127 select(16,18)
c 128 nots(16,18)
c 129 select(16,44)
c 130 nots(16,44)
c 131 reach(44)
c 132 reach(13)
c 133 select(13,8)
c 134 nots(13,8)
c 135 select(13,12)
c 136 nots(13,12)
c 137 select(44,16)
c 138 nots(44,16)
c 139 select(44,25)
c 140 nots(44,25)
c 141 select(13,29)
c 142 nots(13,29)
c 143 reach(29)
c 144 reach(25)
c 145 reach(12)
c 146 select(29,13)
c 147 nots(29,13)
c 148 select(12,24)
c 149 nots(12,24)
c 150 select(12,13)
c 151 nots(12,13)
c 152 select(25,44)
c 153 nots(25,44)
c 154 select(25,38)
c 155 nots(25,38)
c 156 select(29,40)
c 157 nots(29,40)
c 158 reach(40)
c 159 reach(38)
c 160 reach(24)
c 161 select(24,12)
c 162 nots(24,12)
c 163 select(38,7)
c 164 nots(38,7)
c 165 select(38,25)
c 166 nots(38,25)
c 167 select(40,28)
c 168 nots(40,28)
c 169 select(40,29)
c 170 nots(40,29)
c 171 select(24,43)
c 172 nots(24,43)
c 173 reach(43)
c 174 reach(28)
c 175 reach(7)
c 176 select(43,20)
c 177 nots(43,20)
c 178 select(43,24)
c 179 nots(43,24)
c 180 select(7,34)
c 181 nots(7,34)
c 182 select(7,38)
c 183 nots(7,38)
c 184 select(28,40)
c 185 nots(28,40)
c 186 select(28,30)
c 187 nots(28,30)
c 188 reach(30)
c 189 reach(34)
c 190 reach(20)
c 191 select(34,4)
c 192 nots(34,4)
c 193 select(34,7)
c 194 nots(34,7)
c 195 select(30,2)
c 196 nots(30,2)
c 197 select(30,28)
c 198 nots(30,28)
c 199 select(20,26)
c 200 nots(20,26)
c 201 select(20,43)
c 202 nots(20,43)
c 203 reach(26)
c 204 reach(2)
c 205 reach(4)
c 206 select(26,6)
c 207 nots(26,6)
c 208 select(26,20)
c 209 nots(26,20)
c 210 select(4,34)
c 211 nots(4,34)
c 212 select(4,19)
c 213 nots(4,19)
c 214 select(2,35)
c 215 nots(2,35)
c 216 select(2,30)
c 217 nots(2,30)
c 218 reach(35)
c 219 reach(19)
c 220 reach(6)
c 221 select(19,4)
c 222 nots(19,4)
c 223 select(35,2)
c 224 nots(35,2)
c 225 select(35,5)
c 226 nots(35,5)
c 227 select(6,26)
c 228 nots(6,26)
c 229 select(19,33)
c 230 nots(19,33)
c 231 reach(33)
c 232 reach(5)
c 233 select(33,19)
c 234 nots(33,19)
c 235 select(33,23)
c 236 nots(33,23)
c 237 select(5,35)
c 238 nots(5,35)
c 239 select(5,36)
c 240 nots(5,36)
c 241 reach(36)
c 242 reach(23)
c 243 select(36,5)
c 244 nots(36,5)
c 245 select(23,33)
c 246 nots(23,33)
c 247 select(23,42)
c 248 nots(23,42)
c 249 reach(42)
c 250 select(42,23)
c 251 nots(42,23)
c 252 select(42,32)
c 253 nots(42,32)
c 254 reach(32)
c 255 select(32,22)
c 256 nots(32,22)
c 257 select(32,42)
c 258 nots(32,42)
c 259 select(32,39)
c 260 nots(32,39)
c 261 reach(39)
c 262 reach(22)
c 263 select(39,22)
c 264 nots(39,22)
c 265 select(39,32)
c 266 nots(39,32)
c 267 select(22,32)
c 268 nots(22,32)
c 269 select(22,39)
c 270 nots(22,39)
c 316 edge(1,10)
c 317 edge(1,3)
c 318 edge(1,14)
c 319 edge(2,35)
c 320 edge(2,30)
c 321 edge(3,21)
c 322 edge(4,34)
c 323 edge(4,19)
c 324 edge(5,35)
c 325 edge(5,36)
c 326 edge(6,26)
c 327 edge(7,34)
c 328 edge(7,38)
c 329 edge(8,11)
c 330 edge(8,13)
c 331 edge(9,27)
c 332 edge(9,14)
c 333 edge(10,31)
c 334 edge(11,41)
c 335 edge(11,18)
c 336 edge(12,24)
c 337 edge(12,13)
c 338 edge(13,29)
c 339 edge(15,37)
c 340 edge(16,18)
c 341 edge(16,44)
c 342 edge(17,41)
c 343 edge(17,21)
c 344 edge(18,41)
c 345 edge(19,33)
c 346 edge(20,26)
c 347 edge(20,43)
c 348 edge(22,32)
c 349 edge(22,39)
c 350 edge(23,33)
c 351 edge(23,42)
c 352 edge(24,43)
c 353 edge(25,44)
c 354 edge(25,38)
c 355 edge(28,40)
c 356 edge(28,30)
c 357 edge(29,40)
c 358 edge(31,37)
c 359 edge(32,42)
c 360 edge(32,39)
c 361 reach(1)
c 362 goal(44)
48 49 0
-48 -49 0
50 51 0
-50 -51 0
52 53 0
-52 -53 0
363 -52 0
-363 52 0
364 -50 0
-364 50 0
365 -48 0
-365 48 0
57 -56 58 0
-57 56 0
-57 -58 0
59 -55 60 0
-59 55 0
-59 -60 0
61 -54 62 0
-61 54 0
-61 -62 0
63 -54 64 0
-63 54 0
-63 -64 0
65 -56 66 0
-65 56 0
-65 -66 0
67 -55 68 0
-67 55 0
-67 -68 0
366 -67 0
-366 67 0
367 -65 0
-367 65 0
368 -63 0
-368 63 0
72 -70 73 0
-72 70 0
-72 -73 0
74 -69 75 0
-74 69 0
-74 -75 0
76 -69 77 0
-76 69 0
-76 -77 0
78 -71 79 0
-78 71 0
-78 -79 0
80 -71 81 0
-80 71 0
-80 -81 0
82 -70 83 0
-82 70 0
-82 -83 0
369 -82 0
-369 82 0
370 -80 0
-370 80 0
85 -78 0
-85 78 0
371 -76 0
-371 76 0
372 -74 0
-372 74 0
373 -72 0
-373 72 0
87 -85 88 0
-87 85 0
-87 -88 0
89 -84 90 0
-89 84 0
-89 -90 0
91 -84 92 0
-91 84 0
-91 -92 0
93 -86 94 0
-93 86 0
-93 -94 0
95 -86 96 0
-95 86 0
-95 -96 0
374 -95 0
-374 95 0
375 -93 0
-375 93 0
376 -91 0
-376 91 0
98 -89 0
-98 89 0
377 -87 0
-377 87 0
99 -97 100 0
-99 97 0
-99 -100 0
101 -97 102 0
-101 97 0
-101 -102 0
103 -97 104 0
-103 97 0
-103 -104 0
105 -98 106 0
-105 98 0
-105 -106 0
378 -105 0
-378 105 0
379 -103 0
-379 103 0
380 -101 0
-380 101 0
381 -99 0
-381 99 0
109 -108 110 0
-109 108 0
-109 -110 0
111 -107 112 0
-111 107 0
-111 -112 0
113 -107 114 0
-113 107 0
-113 -114 0
115 -108 116 0
-115 108 0
-115 -116 0
117 -108 118 0
-117 108 0
-117 -118 0
119 -107 120 0
-119 107 0
-119 -120 0
382 -119 0
-382 119 0
383 -117 0
-383 117 0
384 -115 0
-384 115 0
385 -113 0
-385 113 0
386 -111 0
-386 111 0
387 -109 0
-387 109 0
123 -122 124 0
-123 122 0
-123 -124 0
125 -122 126 0
-125 122 0
-125 -126 0
127 -121 128 0
-127 121 0
-127 -128 0
129 -121 130 0
-129 121 0
-129 -130 0
388 -129 0
-388 129 0
389 -127 0
-389 127 0
390 -125 0
-390 125 0
391 -123 0
-391 123 0
133 -132 134 0
-133 132 0
-133 -134 0
135 -132 136 0
-135 132 0
-135 -136 0
137 -131 138 0
-137 131 0
-137 -138 0
139 -131 140 0
-139 131 0
-139 -140 0
141 -132 142 0
-141 132 0
-141 -142 0
392 -141 0
-392 141 0
393 -139 0
-393 139 0
394 -137 0
-394 137 0
395 -135 0
-395 135 0
396 -133 0
-396 133 0
146 -143 147 0
-146 143 0
-146 -147 0
148 -145 149 0
-148 145 0
-148 -149 0
150 -145 151 0
-150 145 0
-150 -151 0
152 -144 153 0
-152 144 0
-152 -153 0
154 -144 155 0
-154 144 0
-154 -155 0
156 -143 157 0
-156 143 0
-156 -157 0
397 -156 0
-397 156 0
398 -154 0
-398 154 0
399 -152 0
-399 152 0
400 -150 0
-400 150 0
401 -148 0
-401 148 0
402 -146 0
-402 146 0
161 -160 162 0
-161 160 0
-161 -162 0
163 -159 164 0
-163 159 0
-163 -164 0
165 -159 166 0
-165 159 0
-165 -166 0
167 -158 168 0
-167 158 0
-167 -168 0
169 -158 170 0
-169 158 0
-169 -170 0
171 -160 172 0
-171 160 0
-171 -172 0
403 -171 0
-403 171 0
404 -169 0
-404 169 0
405 -167 0
-405 167 0
406 -165 0
-406 165 0
407 -163 0
-407 163 0
408 -161 0
-408 161 0
176 -173 177 0
-176 173 0
-176 -177 0
178 -173 179 0
-178 173 0
-178 -179 0
180 -175 181 0
-180 175 0
-180 -181 0
182 -175 183 0
-182 175 0
-182 -183 0
184 -174 185 0
-184 174 0
-184 -185 0
186 -174 187 0
-186 174 0
-186 -187 0
409 -186 0
-409 186 0
410 -184 0
-410 184 0
411 -182 0
-411 182 0
412 -180 0
-412 180 0
413 -178 0
-413 178 0
414 -176 0
-414 176 0
191 -189 192 0
-191 189 0
-191 -192 0
193 -189 194 0
-193 189 0
-193 -194 0
195 -188 196 0
-195 188 0
-195 -196 0
197 -188 198 0
-197 188 0
-197 -198 0
199 -190 200 0
-199 190 0
-199 -200 0
201 -190 202 0
-201 190 0
-201 -202 0
415 -201 0
-415 201 0
416 -199 0
-416 199 0
417 -197 0
-417 197 0
418 -195 0
-418 195 0
419 -193 0
-419 193 0
420 -191 0
-420 191 0
206 -203 207 0
-206 203 0
-206 -207 0
208 -203 209 0
-208 203 0
-208 -209 0
210 -205 211 0
-210 205 0
-210 -211 0
212 -205 213 0
-212 205 0
-212 -213 0
214 -204 215 0
-214 204 0
-214 -215 0
216 -204 217 0
-216 204 0
-216 -217 0
421 -216 0
-421 216 0
422 -214 0
-422 214 0
423 -212 0
-423 212 0
424 -210 0
-424 210 0
425 -208 0
-425 208 0
220 -206 0
-220 206 0
221 -219 222 0
-221 219 0
-221 -222 0
223 -218 224 0
-223 218 0
-223 -224 0
225 -218 226 0
-225 218 0
-225 -226 0
227 -220 228 0
-227 220 0
-227 -228 0
229 -219 230 0
-229 219 0
-229 -230 0
426 -229 0
-426 229 0
427 -227 0
-427 227 0
428 -225 0
-428 225 0
429 -223 0
-429 223 0
430 -221 0
-430 221 0
233 -231 234 0
-233 231 0
-233 -234 0
235 -231 236 0
-235 231 0
-235 -236 0
237 -232 238 0
-237 232 0
-237 -238 0
239 -232 240 0
-239 232 0
-239 -240 0
241 -239 0
-241 239 0
431 -237 0
-431 237 0
432 -235 0
-432 235 0
433 -233 0
-433 233 0
243 -241 244 0
-243 241 0
-243 -244 0
245 -242 246 0
-245 242 0
-245 -246 0
247 -242 248 0
-247 242 0
-247 -248 0
434 -247 0
-434 247 0
435 -245 0
-435 245 0
436 -243 0
-436 243 0
250 -249 251 0
-250 249 0
-250 -251 0
252 -249 253 0
-252 249 0
-252 -253 0
437 -252 0
-437 252 0
438 -250 0
-438 250 0
255 -254 256 0
-255 254 0
-255 -256 0
257 -254 258 0
-257 254 0
-257 -258 0
259 -254 260 0
-259 254 0
-259 -260 0
439 -259 0
-439 259 0
440 -257 0
-440 257 0
441 -255 0
-441 255 0
263 -261 264 0
-263 261 0
-263 -264 0
265 -261 266 0
-265 261 0
-265 -266 0
267 -262 268 0
-267 262 0
-267 -268 0
269 -262 270 0
-269 262 0
-269 -270 0
442 -269 0
-442 269 0
443 -267 0
-443 267 0
444 -265 0
-444 265 0
445 -263 0
-445 263 0
58 -56 57 0
-58 56 0
-58 -57 0
60 -55 59 0
-60 55 0
-60 -59 0
62 -54 61 0
-62 54 0
-62 -61 0
224 -218 223 0
-224 218 0
-224 -223 0
196 -188 195 0
-196 188 0
-196 -195 0
75 -69 74 0
-75 69 0
-75 -74 0
192 -189 191 0
-192 189 0
-192 -191 0
222 -219 221 0
-222 219 0
-222 -221 0
226 -218 225 0
-226 218 0
-226 -225 0
244 -241 243 0
-244 241 0
-244 -243 0
207 -203 206 0
-207 203 0
-207 -206 0
194 -189 193 0
-194 189 0
-194 -193 0
164 -159 163 0
-164 159 0
-164 -163 0
110 -108 109 0
-110 108 0
-110 -109 0
134 -132 133 0
-134 132 0
-134 -133 0
88 -85 87 0
-88 85 0
-88 -87 0
64 -54 63 0
-64 54 0
-64 -63 0
73 -70 72 0
-73 70 0
-73 -72 0
100 -97 99 0
-100 97 0
-100 -99 0
112 -107 111 0
-112 107 0
-112 -111 0
162 -160 161 0
-162 160 0
-162 -161 0
136 -132 135 0
-136 132 0
-136 -135 0
147 -143 146 0
-147 143 0
-147 -146 0
90 -84 89 0
-90 84 0
-90 -89 0
114 -107 113 0
-114 107 0
-114 -113 0
138 -131 137 0
-138 131 0
-138 -137 0
102 -97 101 0
-102 97 0
-102 -101 0
77 -69 76 0
-77 69 0
-77 -76 0
104 -97 103 0
-104 97 0
-104 -103 0
234 -231 233 0
-234 231 0
-234 -233 0
209 -203 208 0
-209 203 0
-209 -208 0
177 -173 176 0
-177 173 0
-177 -176 0
256 -254 255 0
-256 254 0
-256 -255 0
264 -261 263 0
-264 261 0
-264 -263 0
236 -231 235 0
-236 231 0
-236 -235 0
251 -249 250 0
-251 249 0
-251 -250 0
179 -173 178 0
-179 173 0
-179 -178 0
140 -131 139 0
-140 131 0
-140 -139 0
166 -159 165 0
-166 159 0
-166 -165 0
168 -158 167 0
-168 158 0
-168 -167 0
198 -188 197 0
-198 188 0
-198 -197 0
170 -158 169 0
-170 158 0
-170 -169 0
92 -84 91 0
-92 84 0
-92 -91 0
253 -249 252 0
-253 249 0
-253 -252 0
266 -261 265 0
-266 261 0
-266 -265 0
49 48 0
-49 -48 0
51 50 0
-51 -50 0
53 52 0
-53 -52 0
215 -204 214 0
-215 204 0
-215 -214 0
217 -204 216 0
-217 204 0
-217 -216 0
68 -55 67 0
-68 55 0
-68 -67 0
211 -205 210 0
-211 205 0
-211 -210 0
213 -205 212 0
-213 205 0
-213 -212 0
238 -232 237 0
-238 232 0
-238 -237 0
240 -232 239 0
-240 232 0
-240 -239 0
228 -220 227 0
-228 220 0
-228 -227 0
181 -175 180 0
-181 175 0
-181 -180 0
183 -175 182 0
-183 175 0
-183 -182 0
124 -122 123 0
-124 122 0
-124 -123 0
126 -122 125 0
-126 122 0
-126 -125 0
79 -71 78 0
-79 71 0
-79 -78 0
81 -71 80 0
-81 71 0
-81 -80 0
66 -56 65 0
-66 56 0
-66 -65 0
116 -108 115 0
-116 108 0
-116 -115 0
118 -108 117 0
-118 108 0
-118 -117 0
149 -145 148 0
-149 145 0
-149 -148 0
151 -145 150 0
-151 145 0
-151 -150 0
142 -132 141 0
-142 132 0
-142 -141 0
106 -98 105 0
-106 98 0
-106 -105 0
128 -121 127 0
-128 121 0
-128 -127 0
130 -121 129 0
-130 121 0
-130 -129 0
94 -86 93 0
-94 86 0
-94 -93 0
96 -86 95 0
-96 86 0
-96 -95 0
120 -107 119 0
-120 107 0
-120 -119 0
230 -219 229 0
-230 219 0
-230 -229 0
200 -190 199 0
-200 190 0
-200 -199 0
202 -190 201 0
-202 190 0
-202 -201 0
268 -262 267 0
-268 262 0
-268 -267 0
270 -262 269 0
-270 262 0
-270 -269 0
246 -242 245 0
-246 242 0
-246 -245 0
248 -242 247 0
-248 242 0
-248 -247 0
172 -160 171 0
-172 160 0
-172 -171 0
153 -144 152 0
-153 144 0
-153 -152 0
155 -144 154 0
-155 144 0
-155 -154 0
185 -174 184 0
-185 174 0
-185 -184 0
187 -174 186 0
-187 174 0
-187 -186 0
157 -143 156 0
-157 143 0
-157 -156 0
83 -70 82 0
-83 70 0
-83 -82 0
258 -254 257 0
-258 254 0
-258 -257 0
260 -254 259 0
-260 254 0
-260 -259 0
446 -137 0
-446 137 0
447 -139 0
-447 139 0
131 0
-288 0
-48 -50 0
-52 -48 0
-52 -50 0
-63 -61 -54 0
-65 -57 -56 0
-67 -59 -55 0
-76 -74 -69 0
-78 -80 -71 0
-82 -72 -70 0
-91 -89 -84 0
-93 -95 -86 0
-101 -99 -97 0
-103 -99 -97 0
-103 -101 -97 0
-113 -111 -107 0
-115 -109 -108 0
-115 -117 -108 0
-117 -109 -108 0
-119 -111 -107 0
-119 -113 -107 0
-125 -123 -122 0
-129 -127 -121 0
-135 -133 -132 0
-139 -137 -131 0
-141 -133 -132 0
-141 -135 -132 0
-148 -150 -145 0
-152 -154 -144 0
-156 -146 -143 0
-165 -163 -159 0
-169 -167 -158 0
-171 -161 -160 0
-178 -176 -173 0
-182 -180 -175 0
-184 -186 -174 0
-193 -191 -189 0
-197 -195 -188 0
-201 -199 -190 0
-208 -206 -203 0
-210 -212 -205 0
-214 -216 -204 0
-225 -223 -218 0
-229 -221 -219 0
-235 -233 -231 0
-239 -237 -232 0
-247 -245 -242 0
-252 -250 -249 0
-257 -255 -254 0
-257 -259 -254 0
-259 -255 -254 0
-265 -263 -261 0
-269 -267 -262 0
316 0
317 0
318 0
319 0
320 0
321 0
322 0
323 0
324 0
325 0
326 0
327 0
328 0
329 0
330 0
331 0
332 0
333 0
334 0
335 0
336 0
337 0
338 0
339 0
340 0
341 0
342 0
343 0
344 0
345 0
346 0
347 0
348 0
349 0
350 0
351 0
352 0
353 0
354 0
355 0
356 0
357 0
358 0
359 0
360 0
361 0
362 0
-1 0
-2 0
-3 0
-4 0
-5 0
-6 0
-7 0
-8 0
-9 0
-10 0
-11 0
-12 0
-13 0
-14 0
-15 0
-16 0
-17 0
-18 0
-19 0
-20 0
-21 0
-22 0
-23 0
-24 0
-25 0
-26 0
-27 0
-28 0
-29 0
-30 0
-31 0
-32 0
-33 0
-34 0
-35 0
-36 0
-37 0
-38 0
-39 0
-40 0
-41 0
-42 0
-43 0
-44 0
-45 0
-46 0
-47 0
-54 363 370 0
54 -363 0
54 -370 0
-55 364 372 0
55 -364 0
55 -372 0
-56 365 373 0
56 -365 0
56 -373 0
-69 366 374 0
69 -366 0
69 -374 0
-70 367 376 0
70 -367 0
70 -376 0
-71 368 377 0
71 -368 0
71 -377 0
-84 369 378 0
84 -369 0
84 -378 0
-86 371 380 0
86 -371 0
86 -380 0
-97 375 382 384 0
97 -375 0
97 -382 0
97 -384 0
-107 379 383 389 0
107 -379 0
107 -383 0
107 -389 0
-108 381 386 391 0
108 -381 0
108 -386 0
108 -391 0
-121 385 394 0
121 -385 0
121 -394 0
-122 387 396 0
122 -387 0
122 -396 0
-131 388 399 0
131 -388 0
131 -399 0
-132 390 400 402 0
132 -390 0
132 -400 0
132 -402 0
-143 392 404 0
143 -392 0
143 -404 0
-144 393 406 0
144 -393 0
144 -406 0
-145 395 408 0
145 -395 0
145 -408 0
-158 397 410 0
158 -397 0
158 -410 0
-159 398 411 0
159 -398 0
159 -411 0
-160 401 413 0
160 -401 0
160 -413 0
-173 403 415 0
173 -403 0
173 -415 0
-174 405 417 0
174 -405 0
174 -417 0
-175 407 419 0
175 -407 0
175 -419 0
-188 409 421 0
188 -409 0
188 -421 0
-189 412 424 0
189 -412 0
189 -424 0
-190 414 425 0
190 -414 0
190 -425 0
-203 416 427 0
203 -416 0
203 -427 0
-204 418 429 0
204 -418 0
204 -429 0
-205 420 430 0
205 -420 0
205 -430 0
-218 422 431 0
218 -422 0
218 -431 0
-219 423 433 0
219 -423 0
219 -433 0
-231 426 435 0
231 -426 0
231 -435 0
-232 428 436 0
232 -428 0
232 -436 0
-242 432 438 0
242 -432 0
242 -438 0
-249 434 440 0
249 -434 0
249 -440 0
-254 437 443 444 0
254 -437 0
254 -443 0
254 -444 0
-261 439 442 0
261 -439 0
261 -442 0
-262 441 445 0
262 -441 0
262 -445 0
-271 0
-272 0
-273 0
-274 0
-275 0
-276 0
-277 0
-278 0
-279 0
-280 0
-281 0
-282 0
-283 0
-284 0
-285 0
-286 0
-287 0
-288 446 447 0
288 -446 0
288 -447 0
-289 0
-290 0
-291 0
-292 0
-293 0
-294 0
-295 0
-296 0
-297 0
-298 0
-299 0
-300 0
-301 0
-302 0
-303 0
-304 0
-305 0
-306 0
-307 0
-308 0
-309 0
-310 0
-311 0
-312 0
-313 0
-314 0
-315 0
